p tw 62 138
0 1
0 2
1 2
1 12
1 13
1 16
1 57
2 42
2 53
3 4
3 5
3 22
3 33
4 5
4 38
4 40
5 42
5 43
6 7
6 8
7 8
7 51
7 52
8 24
8 25
8 35
8 37
8 33
8 38
8 32
8 50
8 36
8 42
9 10
9 11
9 14
9 15
9 34
9 36
10 11
10 19
10 20
10 26
10 27
10 15
10 41
10 24
10 34
10 47
10 59
11 42
11 48
11 34
11 50
11 51
12 13
13 18
13 35
13 60
14 15
15 41
15 27
15 61
16 17
16 18
16 29
16 49
16 57
17 18
17 28
17 29
17 50
17 52
18 35
18 36
18 38
19 20
19 23
19 29
21 22
21 23
21 26
21 54
22 23
22 33
23 29
24 25
24 34
24 48
24 50
25 38
25 55
26 27
26 54
27 48
27 54
27 61
28 29
29 49
30 31
30 32
31 32
32 44
32 45
32 50
33 34
33 35
33 38
33 53
33 56
34 35
34 36
34 42
35 37
36 42
36 38
38 55
38 40
38 50
38 54
39 40
39 46
39 47
42 43
42 48
42 53
44 45
46 47
47 59
48 54
48 50
50 54
50 58
50 52
50 51
51 52
53 56
54 58
